4	143	143	0	0	0
5	144	103	0	0	0
6	236	184	0	16	16
7	279	240	0	15	15
8	267	244	0	16	16
9	261	225	0	31	31
10	385	247	0	16	16
11	438	306	0	187	187
12	377	312	0	16	16
13	541	339	0	31	31
14	551	415	0	31	31
15	675	387	0	47	47
16	560	420	0	32	32
17	656	406	0	78	78
18	634	447	0	187	187
19	875	477	16	78	94
